(set-logic HORN)
(set-info :source |
    Benchmark: C_VC
    Output by Princess (http://www.philipp.ruemmer.org/princess.shtml)
|)
(set-info :status unknown)
(declare-fun inv_main10 (Int Int) Bool)
(declare-fun inv_main12 (Int Int) Bool)
(declare-fun inv_main18 (Int Int) Bool)
(declare-fun inv_main3 (Int Int) Bool)
(declare-fun inv_main4 (Int Int) Bool)
(assert (forall ((var0 Int)) (forall ((var1 Int)) (inv_main3 var1 var0 ) ) ) )
(assert (forall ((var0 Int)) (forall ((var1 Int)) (or (not (inv_main3 var1 var0 ) ) (inv_main4 0 var0 ) ) ) ) )
(assert (forall ((var0 Int)) (forall ((var1 Int)) (or (not (inv_main10 var1 var0 ) ) (inv_main10 var1 var0 ) ) ) ) )
(assert (forall ((var0 Int)) (forall ((var1 Int)) (forall ((var2 Int)) (or (not (and (inv_main4 var2 var1 ) (and (not (= var0 0 ) ) (<= 0 (+ (+ 1000000 (* (- 1) var2 ) ) (- 1) ) ) ) ) ) (inv_main4 (+ var2 1 ) var1 ) ) ) ) ) )
(assert (forall ((var0 Int)) (forall ((var1 Int)) (forall ((var2 Int)) (or (not (and (inv_main4 var2 var1 ) (and (<= 0 (+ var2 (- 100) ) ) (not (and (not (= var0 0 ) ) (<= 0 (+ (+ 1000000 (* (- 1) var2 ) ) (- 1) ) ) ) ) ) ) ) (inv_main10 var2 var1 ) ) ) ) ) )
(assert (forall ((var0 Int)) (forall ((var1 Int)) (forall ((var2 Int)) (or (not (and (inv_main4 var2 var1 ) (and (not (<= 0 (+ var2 (- 100) ) ) ) (not (and (not (= var0 0 ) ) (<= 0 (+ (+ 1000000 (* (- 1) var2 ) ) (- 1) ) ) ) ) ) ) ) (inv_main12 var2 0 ) ) ) ) ) )
(assert (forall ((var0 Int)) (forall ((var1 Int)) (forall ((var2 Int)) (or (not (and (inv_main12 var2 var1 ) (and (not (= var0 0 ) ) (<= 0 (+ (+ 1000000 (* (- 1) var2 ) ) (- 1) ) ) ) ) ) (inv_main12 (+ var2 1 ) (+ var1 1 ) ) ) ) ) ) )
(assert (forall ((var0 Int)) (forall ((var1 Int)) (forall ((var2 Int)) (or (not (and (inv_main12 var2 var1 ) (and (<= 0 (+ var1 (- 100) ) ) (not (and (not (= var0 0 ) ) (<= 0 (+ (+ 1000000 (* (- 1) var2 ) ) (- 1) ) ) ) ) ) ) ) (inv_main10 var2 var1 ) ) ) ) ) )
(assert (forall ((var0 Int)) (forall ((var1 Int)) (forall ((var2 Int)) (or (not (and (inv_main12 var2 var1 ) (and (not (<= 0 (+ var1 (- 100) ) ) ) (not (and (not (= var0 0 ) ) (<= 0 (+ (+ 1000000 (* (- 1) var2 ) ) (- 1) ) ) ) ) ) ) ) (inv_main18 var2 var1 ) ) ) ) ) )
(assert (forall ((var0 Int)) (forall ((var1 Int)) (not (and (inv_main18 var1 var0 ) (not (<= 0 (+ (+ 200 (* (- 1) var1 ) ) (- 1) ) ) ) ) ) ) ) )
(check-sat)
